62 18 94 85 93 87 56 4 
31 84 61 53 26 77 80 
59 40 95 99 92 42 41 58 
11 6 44 16 86 91 
2 82 29 79 3 50 70 
14 15 13 21 73 22 72 74 
69 76 12 24 33 66 35 
28 27 81 90 7 83 5 100 
88 64 49 30 51 20 32 
19 17 46 45 96 97 37 89 
47 9 57 43 
98 48 67 39 55 
52 71 36 60 
63 65 34 78 68 54 
75 25 23 10 
8 38 1 

